
Gurobi 13.0.0 (linux64) logging started Fri Jan 16 04:18:00 2026

Set parameter LogFile to value "../experiments/network-n_60_s_0_rp_0-app_set-id_39_18_apps/submip_40_epr1_model_gurobi.log"
Set parameter TimeLimit to value 8.3630959270001040e+02
Gurobi Optimizer version 13.0.0 build v13.0.0rc1 (linux64 - "Ubuntu 24.04.3 LTS")

CPU model: Intel(R) Core(TM) Ultra 7 165H, instruction set [SSE2|AVX|AVX2]
Thread count: 22 physical cores, 22 logical processors, using up to 22 threads

Non-default parameters:
TimeLimit  8.3630959270001040e+02
LogToConsole  0

Academic license 2539022 - for non-commercial use only - registered to al___@studenti.unimi.it
Optimize a model with 33640 rows, 7020 columns and 76922 nonzeros (Min)
Model fingerprint: 0xae7ade2f
Model has 7020 linear objective coefficients
Model has 200 quadratic constraints
Variable types: 0 continuous, 7020 integer (7020 binary)
Coefficient statistics:
  Matrix range     [1e+00, 9e+02]
  QMatrix range    [6e+01, 2e+02]
  Objective range  [1e+01, 2e+02]
  Bounds range     [1e+00, 1e+00]
  RHS range        [1e+00, 1e+09]
  QRHS range       [1e+02, 6e+02]

Loaded MIP start from previous solve with objective 4533

Presolve removed 33202 rows and 5780 columns
Presolve time: 0.09s
Presolved: 10790 rows, 11401 columns, 66150 nonzeros
Variable types: 0 continuous, 11401 integer (11401 binary)

Root relaxation: objective 4.416487e+03, 1015 iterations, 0.07 seconds (0.12 work units)

    Nodes    |    Current Node    |     Objective Bounds      |     Work
 Expl Unexpl |  Obj  Depth IntInf | Incumbent    BestBd   Gap | It/Node Time

     0     0 4416.48710    0  111 4533.00000 4416.48710  2.57%     -    0s
     0     0 4444.19044    0  137 4533.00000 4444.19044  1.96%     -    0s
     0     0 4471.16367    0  148 4533.00000 4471.16367  1.36%     -    1s
     0     0 4475.83720    0  142 4533.00000 4475.83720  1.26%     -    1s
     0     0 4475.83942    0  141 4533.00000 4475.83942  1.26%     -    1s
     0     0 4494.06862    0  159 4533.00000 4494.06862  0.86%     -    1s
     0     0 4494.96646    0  154 4533.00000 4494.96646  0.84%     -    1s
     0     0 4495.47340    0  167 4533.00000 4495.47340  0.83%     -    1s
     0     0 4501.80928    0  179 4533.00000 4501.80928  0.69%     -    2s
     0     0 4502.12350    0  177 4533.00000 4502.12350  0.68%     -    2s
     0     0 4502.12350    0  177 4533.00000 4502.12350  0.68%     -    2s
     0     0 4502.12350    0  173 4533.00000 4502.12350  0.68%     -    2s
     0     2 4502.12862    0  171 4533.00000 4502.12862  0.68%     -    2s
   558   272 4522.69184   11  111 4533.00000 4514.62620  0.41%  75.8    5s
  1403   466 4530.58849   16   77 4533.00000 4519.74704  0.29%  64.7   10s
  2241   444     cutoff   17      4533.00000 4522.88412  0.22%  59.8   15s

Cutting planes:
  Gomory: 4
  Lift-and-project: 6
  Cover: 139
  Implied bound: 4
  Clique: 29
  MIR: 108
  Knapsack: 7
  StrongCG: 61
  GUB cover: 8
  Zero half: 18
  RLT: 135
  Relax-and-lift: 54
  BQP: 36

Explored 4019 nodes (221950 simplex iterations) in 19.14 seconds (8.79 work units)
Thread count was 22 (of 22 available processors)

Solution count 1: 4533 

Optimal solution found (tolerance 1.00e-04)
Best objective 4.533000000000e+03, best bound 4.533000000000e+03, gap 0.0000%

User-callback calls 9520, time in user-callback 0.01 sec
